p cnf 13 49
2 -10 -13 0
2 -3 11 0
-3 -9 12 0
3 -8 10 0
9 10 -11 0
1 8 13 0
-6 -9 -11 0
3 4 -5 0
6 7 8 0
2 10 13 0
7 8 -13 0
3 -5 10 0
1 3 -6 0
-6 -7 12 0
-2 -5 10 0
4 -11 -13 0
-2 -3 -10 0
7 11 12 0
-5 8 12 0
2 4 -6 0
-3 6 8 0
-1 5 -12 0
9 10 -12 0
3 4 13 0
1 3 10 0
3 -9 10 0
-1 -2 4 0
-6 12 13 0
-2 6 -11 0
-6 7 11 0
-5 -8 -11 0
-5 -7 13 0
5 -6 -9 0
3 4 -7 0
2 7 12 0
-2 4 7 0
-8 10 11 0
8 -9 12 0
7 8 -9 0
4 -6 -7 0
8 -10 12 0
-1 2 11 0
4 8 9 0
-1 5 9 0
6 -8 9 0
7 -11 12 0
9 -10 -11 0
-2 -9 -13 0
-3 -8 -9 0
